1075 3625 1500 3650
1570 3600 2450 3275
950 2960 2150 2680
1250 2160 1350 2800
1270 2140 1350 1850

1375 1775 1950 2060
1925 2150 2100 2690
2175 2700 2475 3260
2500 3310 2900 2960
2900 2960 4900 3300

4500 2290 4925 3275
2750 1750 3500 825
3525 875 4475 2260

1925 4010 70*10
950 3380 50
1150 2325 60
2025 3110 48
2900 2560 48
3575 2660 45
4300 3590 60
4050 2775 42
3600 1925 86
